NAME          
ROWS
 N  OBJ
 L  c2
 L  c3
 L  c4
 L  c5
 L  c6
 G  c1
COLUMNS
    ss[1]     c1        1
    ss[1]     OBJ       1000
    s[1]      c2        1
    s[1]      OBJ       -1000
    s[2]      c3        1
    s[2]      OBJ       -1000
    s[3]      c4        1
    s[3]      OBJ       -1000
    s[4]      c5        1
    s[4]      OBJ       -1000
    s[5]      c6        1
    s[5]      OBJ       -1000
    MARKER    'MARKER'                 'INTORG'
    x[1]      c2        919
    x[1]      c3        866
    x[1]      c4        956
    x[1]      c5        27
    x[1]      c6        551
    x[1]      c1        556
    x[1]      OBJ       -465
    x[2]      c2        752
    x[2]      c3        178
    x[2]      c4        828
    x[2]      c5        827
    x[2]      c6        578
    x[2]      c1        125
    x[2]      OBJ       -823
    x[3]      c2        389
    x[3]      c3        155
    x[3]      c4        958
    x[3]      c5        346
    x[3]      c6        221
    x[3]      c1        736
    x[3]      OBJ       -19
    x[4]      c2        678
    x[4]      c3        678
    x[4]      c4        985
    x[4]      c5        631
    x[4]      c6        195
    x[4]      c1        557
    x[4]      OBJ       -277
    x[5]      c2        803
    x[5]      c3        969
    x[5]      c4        645
    x[5]      c5        720
    x[5]      c6        786
    x[5]      c1        301
    x[5]      OBJ       -545
    x[6]      c2        595
    x[6]      c3        371
    x[6]      c4        338
    x[6]      c5        306
    x[6]      c6        5
    x[6]      c1        6
    x[6]      OBJ       -748
    x[7]      c2        171
    x[7]      c3        686
    x[7]      c4        755
    x[7]      c5        918
    x[7]      c6        970
    x[7]      c1        111
    x[7]      OBJ       -595
    x[8]      c2        211
    x[8]      c3        424
    x[8]      c4        479
    x[8]      c5        662
    x[8]      c6        868
    x[8]      c1        16
    x[8]      OBJ       -750
    x[9]      c2        52
    x[9]      c3        829
    x[9]      c4        453
    x[9]      c5        730
    x[9]      c6        243
    x[9]      c1        704
    x[9]      OBJ       -122
    x[10]     c2        449
    x[10]     c3        867
    x[10]     c4        647
    x[10]     c5        757
    x[10]     c6        80
    x[10]     c1        952
    x[11]     c2        38
    x[11]     c3        330
    x[11]     c4        588
    x[11]     c5        253
    x[11]     c6        868
    x[11]     c1        408
    x[11]     OBJ       -261
    x[12]     c2        658
    x[12]     c3        908
    x[12]     c4        467
    x[12]     c5        633
    x[12]     c6        483
    x[12]     c1        492
    x[12]     OBJ       -304
    x[13]     c2        673
    x[13]     c3        781
    x[13]     c4        414
    x[13]     c5        725
    x[13]     c6        634
    x[13]     c1        163
    x[13]     OBJ       -821
    x[14]     c2        470
    x[14]     c3        305
    x[14]     c4        237
    x[14]     c5        355
    x[14]     c6        825
    x[14]     c1        938
    x[14]     OBJ       -27
    x[15]     c2        256
    x[15]     c3        376
    x[15]     c4        229
    x[15]     c5        82
    x[15]     c6        891
    x[15]     c1        315
    x[15]     OBJ       -493
    x[16]     c2        447
    x[16]     c3        664
    x[16]     c4        899
    x[16]     c5        520
    x[16]     c6        431
    x[16]     c1        949
    x[16]     OBJ       -42
    x[17]     c2        834
    x[17]     c3        204
    x[17]     c4        50
    x[17]     c5        430
    x[17]     c6        179
    x[17]     c1        670
    x[17]     OBJ       237
    x[18]     c2        329
    x[18]     c3        13
    x[18]     c4        65
    x[18]     c5        696
    x[18]     c6        706
    x[18]     c1        1000
    x[18]     OBJ       191
    x[19]     c2        937
    x[19]     c3        809
    x[19]     c4        292
    x[19]     c5        420
    x[19]     c6        158
    x[19]     c1        457
    x[19]     OBJ       -485
    x[20]     c2        998
    x[20]     c3        191
    x[20]     c4        908
    x[20]     c5        856
    x[20]     c6        48
    x[20]     c1        816
    x[20]     OBJ       -128
    x[21]     c2        325
    x[21]     c3        288
    x[21]     c4        588
    x[21]     c5        784
    x[21]     c6        252
    x[21]     c1        357
    x[21]     OBJ       -448
    x[22]     c2        918
    x[22]     c3        130
    x[22]     c4        221
    x[22]     c5        716
    x[22]     c6        996
    x[22]     c1        495
    x[22]     OBJ       -550
    x[23]     c2        33
    x[23]     c3        17
    x[23]     c4        551
    x[23]     c5        23
    x[23]     c6        91
    x[23]     c1        916
    x[23]     OBJ       562
    x[24]     c2        576
    x[24]     c3        215
    x[24]     c4        890
    x[24]     c5        830
    x[24]     c6        825
    x[24]     c1        852
    x[24]     OBJ       -193
    x[25]     c2        448
    x[25]     c3        106
    x[25]     c4        701
    x[25]     c5        279
    x[25]     c6        116
    x[25]     c1        614
    x[25]     OBJ       -95
    x[26]     c2        118
    x[26]     c3        392
    x[26]     c4        318
    x[26]     c5        245
    x[26]     c6        146
    x[26]     c1        161
    x[26]     OBJ       -346
    x[27]     c2        825
    x[27]     c3        861
    x[27]     c4        865
    x[27]     c5        759
    x[27]     c6        980
    x[27]     c1        60
    x[27]     OBJ       -1191
    x[28]     c2        928
    x[28]     c3        478
    x[28]     c4        432
    x[28]     c5        444
    x[28]     c6        855
    x[28]     c1        382
    x[28]     OBJ       -617
    x[29]     c2        306
    x[29]     c3        154
    x[29]     c4        224
    x[29]     c5        269
    x[29]     c6        886
    x[29]     c1        373
    x[29]     OBJ       -308
    x[30]     c2        393
    x[30]     c3        458
    x[30]     c4        867
    x[30]     c5        558
    x[30]     c6        78
    x[30]     c1        570
    x[30]     OBJ       -225
    x[31]     c2        53
    x[31]     c3        693
    x[31]     c4        684
    x[31]     c5        725
    x[31]     c6        314
    x[31]     c1        182
    x[31]     OBJ       -443
    x[32]     c2        100
    x[32]     c3        439
    x[32]     c4        967
    x[32]     c5        957
    x[32]     c6        517
    x[32]     c1        934
    x[32]     OBJ       -12
    x[33]     c2        535
    x[33]     c3        296
    x[33]     c4        501
    x[33]     c5        471
    x[33]     c6        928
    x[33]     c1        129
    x[33]     OBJ       -511
    x[34]     c2        495
    x[34]     c3        548
    x[34]     c4        48
    x[34]     c5        613
    x[34]     c6        236
    x[34]     c1        542
    x[34]     OBJ       -342
    x[35]     c2        794
    x[35]     c3        682
    x[35]     c4        646
    x[35]     c5        400
    x[35]     c6        923
    x[35]     c1        767
    x[35]     OBJ       -163
    x[36]     c2        659
    x[36]     c3        793
    x[36]     c4        110
    x[36]     c5        506
    x[36]     c6        773
    x[36]     c1        964
    x[36]     OBJ       -13
    x[37]     c2        951
    x[37]     c3        994
    x[37]     c4        574
    x[37]     c5        399
    x[37]     c6        54
    x[37]     c1        896
    x[37]     OBJ       188
    x[38]     c2        705
    x[38]     c3        930
    x[38]     c4        557
    x[38]     c5        437
    x[38]     c6        936
    x[38]     c1        350
    x[38]     OBJ       -452
    x[39]     c2        232
    x[39]     c3        46
    x[39]     c4        628
    x[39]     c5        578
    x[39]     c6        219
    x[39]     c1        178
    x[39]     OBJ       -226
    x[40]     c2        627
    x[40]     c3        26
    x[40]     c4        789
    x[40]     c5        627
    x[40]     c6        687
    x[40]     c1        557
    x[40]     OBJ       -222
    x[41]     c2        566
    x[41]     c3        113
    x[41]     c4        579
    x[41]     c5        784
    x[41]     c6        941
    x[41]     c1        975
    x[41]     OBJ       -105
    x[42]     c2        163
    x[42]     c3        337
    x[42]     c4        595
    x[42]     c5        432
    x[42]     c6        543
    x[42]     c1        70
    x[42]     OBJ       -751
    x[43]     c2        438
    x[43]     c3        398
    x[43]     c4        471
    x[43]     c5        360
    x[43]     c6        140
    x[43]     c1        226
    x[43]     OBJ       -385
    x[44]     c2        408
    x[44]     c3        262
    x[44]     c4        738
    x[44]     c5        573
    x[44]     c6        865
    x[44]     c1        356
    x[44]     OBJ       -449
    x[45]     c2        329
    x[45]     c3        650
    x[45]     c4        469
    x[45]     c5        188
    x[45]     c6        840
    x[45]     c1        404
    x[45]     OBJ       -501
    x[46]     c2        638
    x[46]     c3        662
    x[46]     c4        920
    x[46]     c5        337
    x[46]     c6        472
    x[46]     c1        79
    x[46]     OBJ       -837
    x[47]     c2        7
    x[47]     c3        777
    x[47]     c4        248
    x[47]     c5        942
    x[47]     c6        45
    x[47]     c1        833
    x[47]     OBJ       -44
    x[48]     c2        892
    x[48]     c3        986
    x[48]     c4        312
    x[48]     c5        279
    x[48]     c6        418
    x[48]     c1        616
    x[48]     OBJ       -92
    x[49]     c2        965
    x[49]     c3        317
    x[49]     c4        204
    x[49]     c5        709
    x[49]     c6        12
    x[49]     c1        575
    x[49]     OBJ       -122
    x[50]     c2        6
    x[50]     c3        136
    x[50]     c4        814
    x[50]     c5        37
    x[50]     c6        473
    x[50]     c1        987
    x[50]     OBJ       609
    x[51]     c2        648
    x[51]     c3        141
    x[51]     c4        932
    x[51]     c5        598
    x[51]     c6        972
    x[51]     c1        340
    x[51]     OBJ       -608
    x[52]     c2        10
    x[52]     c3        638
    x[52]     c4        203
    x[52]     c5        498
    x[52]     c6        47
    x[52]     c1        794
    x[52]     OBJ       289
    x[53]     c2        624
    x[53]     c3        519
    x[53]     c4        146
    x[53]     c5        908
    x[53]     c6        925
    x[53]     c1        321
    x[53]     OBJ       -380
    x[54]     c2        848
    x[54]     c3        679
    x[54]     c4        480
    x[54]     c5        784
    x[54]     c6        801
    x[54]     c1        337
    x[54]     OBJ       -771
    x[55]     c2        958
    x[55]     c3        198
    x[55]     c4        872
    x[55]     c5        71
    x[55]     c6        179
    x[55]     c1        580
    x[55]     OBJ       -8
    x[56]     c2        360
    x[56]     c3        334
    x[56]     c4        68
    x[56]     c5        963
    x[56]     c6        121
    x[56]     c1        920
    x[56]     OBJ       544
    x[57]     c2        828
    x[57]     c3        224
    x[57]     c4        404
    x[57]     c5        405
    x[57]     c6        445
    x[57]     c1        425
    x[57]     OBJ       -258
    x[58]     c2        514
    x[58]     c3        961
    x[58]     c4        415
    x[58]     c5        558
    x[58]     c6        282
    x[58]     c1        170
    x[58]     OBJ       -647
    x[59]     c2        266
    x[59]     c3        93
    x[59]     c4        380
    x[59]     c5        357
    x[59]     c6        923
    x[59]     c1        955
    x[59]     OBJ       91
    x[60]     c2        983
    x[60]     c3        279
    x[60]     c4        372
    x[60]     c5        562
    x[60]     c6        565
    x[60]     c1        581
    x[60]     OBJ       -198
    x[61]     c2        335
    x[61]     c3        948
    x[61]     c4        44
    x[61]     c5        856
    x[61]     c6        752
    x[61]     c1        739
    x[61]     OBJ       -166
    x[62]     c2        368
    x[62]     c3        632
    x[62]     c4        215
    x[62]     c5        384
    x[62]     c6        554
    x[62]     c1        622
    x[62]     OBJ       -225
    x[63]     c2        77
    x[63]     c3        938
    x[63]     c4        87
    x[63]     c5        397
    x[63]     c6        859
    x[63]     c1        473
    x[63]     OBJ       -172
    x[64]     c2        124
    x[64]     c3        58
    x[64]     c4        122
    x[64]     c5        439
    x[64]     c6        89
    x[64]     c1        789
    x[64]     OBJ       485
    x[65]     c2        84
    x[65]     c3        586
    x[65]     c4        800
    x[65]     c5        109
    x[65]     c6        569
    x[65]     c1        946
    x[65]     OBJ       108
    x[66]     c2        42
    x[66]     c3        325
    x[66]     c4        350
    x[66]     c5        379
    x[66]     c6        902
    x[66]     c1        499
    x[66]     OBJ       -247
    x[67]     c2        993
    x[67]     c3        602
    x[67]     c4        822
    x[67]     c5        92
    x[67]     c6        935
    x[67]     c1        666
    x[67]     OBJ       -440
    x[68]     c2        116
    x[68]     c3        946
    x[68]     c4        965
    x[68]     c5        186
    x[68]     c6        551
    x[68]     c1        546
    x[68]     OBJ       -110
    x[69]     c2        95
    x[69]     c3        686
    x[69]     c4        63
    x[69]     c5        79
    x[69]     c6        457
    x[69]     c1        630
    x[69]     OBJ       311
    x[70]     c2        6
    x[70]     c3        274
    x[70]     c4        950
    x[70]     c5        591
    x[70]     c6        397
    x[70]     c1        997
    x[70]     OBJ       422
    x[71]     c2        957
    x[71]     c3        534
    x[71]     c4        747
    x[71]     c5        580
    x[71]     c6        17
    x[71]     c1        462
    x[71]     OBJ       -457
    x[72]     c2        946
    x[72]     c3        213
    x[72]     c4        936
    x[72]     c5        487
    x[72]     c6        795
    x[72]     c1        750
    x[72]     OBJ       -387
    x[73]     c2        18
    x[73]     c3        606
    x[73]     c4        265
    x[73]     c5        893
    x[73]     c6        460
    x[73]     c1        841
    x[73]     OBJ       202
    x[74]     c2        670
    x[74]     c3        859
    x[74]     c4        118
    x[74]     c5        733
    x[74]     c6        925
    x[74]     c1        795
    x[74]     OBJ       -200
    x[75]     c2        846
    x[75]     c3        105
    x[75]     c4        663
    x[75]     c5        855
    x[75]     c6        488
    x[75]     c1        2
    x[75]     OBJ       -643
    x[76]     c2        248
    x[76]     c3        980
    x[76]     c4        481
    x[76]     c5        612
    x[76]     c6        844
    x[76]     c1        522
    x[76]     OBJ       -243
    x[77]     c2        746
    x[77]     c3        767
    x[77]     c4        12
    x[77]     c5        24
    x[77]     c6        917
    x[77]     c1        778
    x[77]     OBJ       -88
    x[78]     c2        194
    x[78]     c3        523
    x[78]     c4        781
    x[78]     c5        750
    x[78]     c6        608
    x[78]     c1        42
    x[78]     OBJ       -850
    x[79]     c2        573
    x[79]     c3        623
    x[79]     c4        976
    x[79]     c5        679
    x[79]     c6        859
    x[79]     c1        714
    x[79]     OBJ       -347
    x[80]     c2        30
    x[80]     c3        3
    x[80]     c4        128
    x[80]     c5        738
    x[80]     c6        101
    x[80]     c1        645
    x[80]     OBJ       -1
    x[81]     c2        393
    x[81]     c3        326
    x[81]     c4        878
    x[81]     c5        416
    x[81]     c6        179
    x[81]     c1        855
    x[81]     OBJ       375
    x[82]     c2        420
    x[82]     c3        445
    x[82]     c4        578
    x[82]     c5        898
    x[82]     c6        468
    x[82]     c1        396
    x[82]     OBJ       -288
    x[83]     c2        573
    x[83]     c3        822
    x[83]     c4        953
    x[83]     c5        27
    x[83]     c6        596
    x[83]     c1        768
    x[83]     OBJ       -238
    x[84]     c2        285
    x[84]     c3        55
    x[84]     c4        719
    x[84]     c5        189
    x[84]     c6        193
    x[84]     c1        392
    x[84]     OBJ       -58
    x[85]     c2        434
    x[85]     c3        773
    x[85]     c4        901
    x[85]     c5        773
    x[85]     c6        858
    x[85]     c1        141
    x[85]     OBJ       -613
    x[86]     c2        430
    x[86]     c3        665
    x[86]     c4        515
    x[86]     c5        967
    x[86]     c6        405
    x[86]     c1        544
    x[86]     OBJ       -267
    x[87]     c2        657
    x[87]     c3        895
    x[87]     c4        588
    x[87]     c5        841
    x[87]     c6        677
    x[87]     c1        847
    x[87]     OBJ       -61
    x[88]     c2        947
    x[88]     c3        2
    x[88]     c4        910
    x[88]     c5        28
    x[88]     c6        520
    x[88]     c1        263
    x[88]     OBJ       -675
    x[89]     c2        791
    x[89]     c3        283
    x[89]     c4        616
    x[89]     c5        727
    x[89]     c6        985
    x[89]     c1        325
    x[89]     OBJ       -443
    x[90]     c2        147
    x[90]     c3        250
    x[90]     c4        588
    x[90]     c5        214
    x[90]     c6        107
    x[90]     c1        227
    x[90]     OBJ       -428
    x[91]     c2        296
    x[91]     c3        881
    x[91]     c4        928
    x[91]     c5        355
    x[91]     c6        947
    x[91]     c1        765
    x[91]     OBJ       -334
    x[92]     c2        332
    x[92]     c3        393
    x[92]     c4        515
    x[92]     c5        22
    x[92]     c6        812
    x[92]     c1        128
    x[92]     OBJ       -297
    x[93]     c2        722
    x[93]     c3        842
    x[93]     c4        972
    x[93]     c5        492
    x[93]     c6        268
    x[93]     c1        10
    x[93]     OBJ       -696
    x[94]     c2        927
    x[94]     c3        609
    x[94]     c4        371
    x[94]     c5        668
    x[94]     c6        636
    x[94]     c1        973
    x[94]     OBJ       -102
    x[95]     c2        135
    x[95]     c3        161
    x[95]     c4        899
    x[95]     c5        908
    x[95]     c6        76
    x[95]     c1        162
    x[95]     OBJ       -650
    x[96]     c2        69
    x[96]     c3        191
    x[96]     c4        660
    x[96]     c5        339
    x[96]     c6        537
    x[96]     c1        743
    x[96]     OBJ       362
    x[97]     c2        453
    x[97]     c3        639
    x[97]     c4        885
    x[97]     c5        821
    x[97]     c6        154
    x[97]     c1        208
    x[97]     OBJ       -599
    x[98]     c2        728
    x[98]     c3        364
    x[98]     c4        949
    x[98]     c5        846
    x[98]     c6        407
    x[98]     c1        223
    x[98]     OBJ       -851
    x[99]     c2        818
    x[99]     c3        418
    x[99]     c4        302
    x[99]     c5        352
    x[99]     c6        329
    x[99]     c1        981
    x[99]     OBJ       355
    x[100]    c2        352
    x[100]    c3        481
    x[100]    c4        997
    x[100]    c5        445
    x[100]    c6        696
    x[100]    c1        143
    x[100]    OBJ       -730
RHS
    rhs       c2        36381
    rhs       c3        36418
    rhs       c4        42169
    rhs       c5        39038
    rhs       c6        39353
    rhs       c1        3948
RANGES
BOUNDS
 LO bounds    ss[1]     0
 PL bounds    ss[1]
 MI bounds    s[1]
 UP bounds    s[1]      0
 MI bounds    s[2]
 UP bounds    s[2]      0
 MI bounds    s[3]
 UP bounds    s[3]      0
 MI bounds    s[4]
 UP bounds    s[4]      0
 MI bounds    s[5]
 UP bounds    s[5]      0
 BV bounds    x[1]
 BV bounds    x[2]
 BV bounds    x[3]
 BV bounds    x[4]
 BV bounds    x[5]
 BV bounds    x[6]
 BV bounds    x[7]
 BV bounds    x[8]
 BV bounds    x[9]
 BV bounds    x[10]
 BV bounds    x[11]
 BV bounds    x[12]
 BV bounds    x[13]
 BV bounds    x[14]
 BV bounds    x[15]
 BV bounds    x[16]
 BV bounds    x[17]
 BV bounds    x[18]
 BV bounds    x[19]
 BV bounds    x[20]
 BV bounds    x[21]
 BV bounds    x[22]
 BV bounds    x[23]
 BV bounds    x[24]
 BV bounds    x[25]
 BV bounds    x[26]
 BV bounds    x[27]
 BV bounds    x[28]
 BV bounds    x[29]
 BV bounds    x[30]
 BV bounds    x[31]
 BV bounds    x[32]
 BV bounds    x[33]
 BV bounds    x[34]
 BV bounds    x[35]
 BV bounds    x[36]
 BV bounds    x[37]
 BV bounds    x[38]
 BV bounds    x[39]
 BV bounds    x[40]
 BV bounds    x[41]
 BV bounds    x[42]
 BV bounds    x[43]
 BV bounds    x[44]
 BV bounds    x[45]
 BV bounds    x[46]
 BV bounds    x[47]
 BV bounds    x[48]
 BV bounds    x[49]
 BV bounds    x[50]
 BV bounds    x[51]
 BV bounds    x[52]
 BV bounds    x[53]
 BV bounds    x[54]
 BV bounds    x[55]
 BV bounds    x[56]
 BV bounds    x[57]
 BV bounds    x[58]
 BV bounds    x[59]
 BV bounds    x[60]
 BV bounds    x[61]
 BV bounds    x[62]
 BV bounds    x[63]
 BV bounds    x[64]
 BV bounds    x[65]
 BV bounds    x[66]
 BV bounds    x[67]
 BV bounds    x[68]
 BV bounds    x[69]
 BV bounds    x[70]
 BV bounds    x[71]
 BV bounds    x[72]
 BV bounds    x[73]
 BV bounds    x[74]
 BV bounds    x[75]
 BV bounds    x[76]
 BV bounds    x[77]
 BV bounds    x[78]
 BV bounds    x[79]
 BV bounds    x[80]
 BV bounds    x[81]
 BV bounds    x[82]
 BV bounds    x[83]
 BV bounds    x[84]
 BV bounds    x[85]
 BV bounds    x[86]
 BV bounds    x[87]
 BV bounds    x[88]
 BV bounds    x[89]
 BV bounds    x[90]
 BV bounds    x[91]
 BV bounds    x[92]
 BV bounds    x[93]
 BV bounds    x[94]
 BV bounds    x[95]
 BV bounds    x[96]
 BV bounds    x[97]
 BV bounds    x[98]
 BV bounds    x[99]
 BV bounds    x[100]
ENDATA
